p cnf 16 20
-6 -10 -14 -17 -21 -27 -31 -35 -37 0
-6 -10 -14 -17 -21 -27 -31 -33 -39 0
-2 -6 -10 -13 -17 -23 -25 -35 -39 0
-2 -10 -14 -17 -21 -27 -31 -35 -37 0
-2 -10 -14 -17 -21 -27 -29 -35 -39 0
-2 -6 -10 -17 -21 -27 -29 -35 -39 0
-2 -6 -10 -13 -21 -27 -29 -35 -39 0
-2 -6 -10 -17 -21 -27 -31 -33 -39 0
-2 -6 -10 -13 -17 -23 -25 -31 -39 0
-2 -6 -14 -17 -21 -27 -31 -33 -39 0
-2 -6 -10 -13 -17 -23 -25 -31 -35 0
-2 -6 -10 -17 -21 -27 -31 -35 -37 0
-2 -6 -10 -13 -17 -25 -31 -35 -39 0
-2 -6 -10 -17 -21 -25 -31 -35 -39 0
-6 -10 -14 -17 -21 -27 -29 -35 -39 0
-6 -10 -14 -17 -21 -25 -31 -35 -39 0
-2 -6 -14 -17 -21 -27 -31 -35 -37 0
-2 -6 -14 -17 -21 -25 -31 -35 -39 0
-2 -6 -14 -17 -21 -27 -29 -35 -39 0
-2 -10 -14 -17 -21 -27 -31 -33 -39 0
